2-dimensional/CL_06_25_07.vbp
2
150 150 
25
30 43 30
32 53 72
74 45 4
67 65 88
30 23 54
87 97 64
69 91 90
74 77 26
66 73 94
36 42 28
82 56 72
89 53 49
47 77 54
55 40 19
77 38 28
24 38 61
73 28 84
29 28 23
44 82 67
55 21 53
27 23 54
30 52 16
82 99 9
68 22 54
60 26 77
