datasets/2-dimensional-benchmark/CL_06_25_07.txt
150 150 
0 30 30 43 
1 72 32 53 
2 4 74 45 
3 88 67 65 
4 54 30 23 
5 64 87 97 
6 90 69 91 
7 26 74 77 
8 94 66 73 
9 28 36 42 
10 72 82 56 
11 49 89 53 
12 54 47 77 
13 19 55 40 
14 28 77 38 
15 61 24 38 
16 84 73 28 
17 23 29 28 
18 67 44 82 
19 53 55 21 
20 54 27 23 
21 16 30 52 
22 9 82 99 
23 54 68 22 
24 77 60 26 
